/*********************************************
 * OPL 12.9.0.0 Data
 * Author: Administrator
 * Creation Date: 2019年10月5日 at 下午4:25:19
 *********************************************/
nbJobs =5;
nbStages =5;
nbMach =[0,2,2,3,2,2];
nbWork =[0,2,2,2,2,2];
allMach =[0,2,4,7,9,11];
B=10000;
OpDurations = [
[3,3,94,99,16,17,20,29,38,45,48],
[78,82,15,22,22,33,40,25,38,21,22],
[81,85,21,26,41,46,53,77,79,80,86],
[16,22,58,72,48,50,58,75,79,48,55],
[32,36,4,7,74,79,88,29,35,30,30]
];
OpDue = [592,550,942,794,546];

 